p tw 52 59
1 2
2 13
3 4
4 5
5 6
5 22
6 7
7 8
8 9
8 14
9 10
10 11
11 12
12 14
13 24
14 15
15 16
15 36
16 17
17 18
18 19
18 36
19 20
20 21
21 36
22 23
23 25
23 31
24 35
25 26
26 27
27 28
28 29
28 31
29 30
30 31
31 32
32 33
33 34
34 36
35 46
36 37
37 38
38 39
39 40
39 47
40 41
41 42
42 43
42 47
43 44
44 45
45 47
46 49
47 48
49 50
50 51
51 52
52 3
